\ This file has been generated by DOcplex
\ ENCODING=ISO-8859-1
\Problem name: random_problem.lp

Minimize
 obj: 400 x0 + 200 x1 + 218 x2 + 109 x3 + [ 2528 x0^2 + 2528 x0*x1 + 352 x0*x2
      + 176 x0*x3 + 632 x1^2 + 176 x1*x2 + 88 x1*x3 + 496 x2^2 + 496 x2*x3
      + 124 x3^2 ]/2
Subject To
 c0: 2 x0 + x1 + 2 x2 + x3 = 3

Bounds
 0 <= x0 <= 1
 0 <= x1 <= 1
 0 <= x2 <= 1
 0 <= x3 <= 1

Binaries
 x0 x1 x2 x3
End
